111	22	4	79	
10	10	10	10

0	0	0	0	0	0	2	1	2
1	0	0	1	0	4	2	3	5
2	9	6	3	4	7	2	3	4
3	5	4	5	0	8	2	8	9
4	9	2	10	0	1	2	5	9
5	5	10	5	4	4	2	6	10
6	4	5	1	1	10	2	7	11
7	0	4	2	0	7	2	8	15
8	4	6	8	0	6	2	16	17
9	0	5	6	4	6	2	10	20
10	2	10	0	10	8	2	11	18
11	5	0	10	0	4	1	12
12	10	0	9	7	2	1	13
13	3	1	0	0	4	1	14
14	10	4	5	1	9	2	15	19
15	9	2	2	2	6	1	17
16	8	5	3	1	7	3	18	19	20
17	6	4	0	0	6	1	21
18	6	4	9	6	1	1	21
19	0	1	2	0	10	1	21
20	8	0	7	3	1	1	21
21	0	0	0	0	0	0
